instances/knapsack/knapsack_interdiction/knapsack_40_1_1.kp
42
40
9608

273 27.0 373 40.61
34 3.0 134 18.47
930 93.0 1030 108.06
46 5.0 146 24.09
964 96.0 1064 126.53
116 12.0 216 28.27
409 41.0 509 92.57
812 81.0 912 96.18
214 21.0 314 36.22
909 91.0 1009 131.3
551 55.0 651 117.93
833 83.0 933 137.66
615 62.0 715 116.27
557 56.0 657 124.89
73 7.0 173 21.28
867 87.0 967 139.81
831 83.0 931 108.63
666 67.0 766 136.47
112 11.0 212 21.62
234 23.0 334 58.68
605 60.0 705 95.12
75 8.0 175 27.55
881 88.0 981 116.39
139 14.0 239 46.17
542 54.0 642 84.56
879 88.0 979 142.41
290 29.0 390 75.6
10 1.0 110 17.56
862 86.0 962 127.12
995 100.0 1095 134.7
106 11.0 206 39.36
740 74.0 840 144.28
167 17.0 267 43.48
602 60.0 702 109.13
94 9.0 194 37.28
266 27.0 366 41.27
995 100.0 1095 149.92
662 66.0 762 138.12
60 6.0 160 26.51
201 20.0 301 48.78

42
[983]

[[6, 16, 16, 19, 20, 8, 9, 18, 6, 7, 14, 1, 9, 20, 12, 3, 10, 20, 8, 22, 4, 0, 5, 17, 6, 13, 15, 5, 18, 8, 7, 7, 23, 2, 8, 24, 24, 4, 3, 17]]

[[398, 75, 103, 983, 977, 789, 854, 949, 3, 150, 956, 690, 836, 54, 174, 68, 980, 363, 917, 971, 98, 452, 862, 196, 947, 808, 727, 859, 883, 204, 575, 629, 324, 355, 891, 363, 384, 687, 649, 610]]
