instances/knapsack/knapsack_interdiction/knapsack_40_1_1.lp
\ Model knapsack_40_1_1
\ LP format - for model browsing. Use MPS format to capture full model detail.
\ Signature: 0xe2fdb6dddddb4de2
Minimize
  40.61 x[0] + 18.47 x[1] + 108.06 x[2] + 24.09 x[3] + 126.53 x[4]
   + 28.27 x[5] + 92.57 x[6] + 96.18 x[7] + 36.22 x[8] + 131.3 x[9]
   + 117.93 x[10] + 137.66 x[11] + 116.27 x[12] + 124.89 x[13]
   + 21.28 x[14] + 139.81 x[15] + 108.63 x[16] + 136.47 x[17] + 21.62 x[18]
   + 58.68 x[19] + 95.12 x[20] + 27.55 x[21] + 116.39 x[22] + 46.17 x[23]
   + 84.56 x[24] + 142.41 x[25] + 75.6 x[26] + 17.56 x[27] + 127.12 x[28]
   + 134.7 x[29] + 39.36 x[30] + 144.28 x[31] + 43.48 x[32] + 109.13 x[33]
   + 37.28 x[34] + 41.27 x[35] + 149.92 x[36] + 138.12 x[37] + 26.51 x[38]
   + 48.78 x[39] - 373 y[0] - 134 y[1] - 1030 y[2] - 146 y[3] - 1064 y[4]
   - 216 y[5] - 509 y[6] - 912 y[7] - 314 y[8] - 1009 y[9] - 651 y[10]
   - 933 y[11] - 715 y[12] - 657 y[13] - 173 y[14] - 967 y[15] - 931 y[16]
   - 766 y[17] - 212 y[18] - 334 y[19] - 705 y[20] - 175 y[21] - 981 y[22]
   - 239 y[23] - 642 y[24] - 979 y[25] - 390 y[26] - 110 y[27] - 962 y[28]
   - 1095 y[29] - 206 y[30] - 840 y[31] - 267 y[32] - 702 y[33] - 194 y[34]
   - 366 y[35] - 1095 y[36] - 762 y[37] - 160 y[38] - 301 y[39]
Subject To
 primal_upper: 273 y[0] + 34 y[1] + 930 y[2] + 46 y[3] + 964 y[4]
   + 116 y[5] + 409 y[6] + 812 y[7] + 214 y[8] + 909 y[9] + 551 y[10]
   + 833 y[11] + 615 y[12] + 557 y[13] + 73 y[14] + 867 y[15] + 831 y[16]
   + 666 y[17] + 112 y[18] + 234 y[19] + 605 y[20] + 75 y[21] + 881 y[22]
   + 139 y[23] + 542 y[24] + 879 y[25] + 290 y[26] + 10 y[27] + 862 y[28]
   + 995 y[29] + 106 y[30] + 740 y[31] + 167 y[32] + 602 y[33] + 94 y[34]
   + 266 y[35] + 995 y[36] + 662 y[37] + 60 y[38] + 201 y[39] + 27 z[0]
   + 3 z[1] + 93 z[2] + 5 z[3] + 96 z[4] + 12 z[5] + 41 z[6] + 81 z[7]
   + 21 z[8] + 91 z[9] + 55 z[10] + 83 z[11] + 62 z[12] + 56 z[13]
   + 7 z[14] + 87 z[15] + 83 z[16] + 67 z[17] + 11 z[18] + 23 z[19]
   + 60 z[20] + 8 z[21] + 88 z[22] + 14 z[23] + 54 z[24] + 88 z[25]
   + 29 z[26] + z[27] + 86 z[28] + 100 z[29] + 11 z[30] + 74 z[31]
   + 17 z[32] + 60 z[33] + 9 z[34] + 27 z[35] + 100 z[36] + 66 z[37]
   + 6 z[38] + 20 z[39] <= 9608
 primal_lower0: 398 u[0] + 75 u[1] + 103 u[2] + 983 u[3] + 977 u[4]
   + 789 u[5] + 854 u[6] + 949 u[7] + 3 u[8] + 150 u[9] + 956 u[10]
   + 690 u[11] + 836 u[12] + 54 u[13] + 174 u[14] + 68 u[15] + 980 u[16]
   + 363 u[17] + 917 u[18] + 971 u[19] + 98 u[20] + 452 u[21] + 862 u[22]
   + 196 u[23] + 947 u[24] + 808 u[25] + 727 u[26] + 859 u[27] + 883 u[28]
   + 204 u[29] + 575 u[30] + 629 u[31] + 324 u[32] + 355 u[33] + 891 u[34]
   + 363 u[35] + 384 u[36] + 687 u[37] + 649 u[38] + 610 u[39] <= 983
 interdiction[0]: x[0] + u[0] <= 1
 interdiction[1]: x[1] + u[1] <= 1
 interdiction[2]: x[2] + u[2] <= 1
 interdiction[3]: x[3] + u[3] <= 1
 interdiction[4]: x[4] + u[4] <= 1
 interdiction[5]: x[5] + u[5] <= 1
 interdiction[6]: x[6] + u[6] <= 1
 interdiction[7]: x[7] + u[7] <= 1
 interdiction[8]: x[8] + u[8] <= 1
 interdiction[9]: x[9] + u[9] <= 1
 interdiction[10]: x[10] + u[10] <= 1
 interdiction[11]: x[11] + u[11] <= 1
 interdiction[12]: x[12] + u[12] <= 1
 interdiction[13]: x[13] + u[13] <= 1
 interdiction[14]: x[14] + u[14] <= 1
 interdiction[15]: x[15] + u[15] <= 1
 interdiction[16]: x[16] + u[16] <= 1
 interdiction[17]: x[17] + u[17] <= 1
 interdiction[18]: x[18] + u[18] <= 1
 interdiction[19]: x[19] + u[19] <= 1
 interdiction[20]: x[20] + u[20] <= 1
 interdiction[21]: x[21] + u[21] <= 1
 interdiction[22]: x[22] + u[22] <= 1
 interdiction[23]: x[23] + u[23] <= 1
 interdiction[24]: x[24] + u[24] <= 1
 interdiction[25]: x[25] + u[25] <= 1
 interdiction[26]: x[26] + u[26] <= 1
 interdiction[27]: x[27] + u[27] <= 1
 interdiction[28]: x[28] + u[28] <= 1
 interdiction[29]: x[29] + u[29] <= 1
 interdiction[30]: x[30] + u[30] <= 1
 interdiction[31]: x[31] + u[31] <= 1
 interdiction[32]: x[32] + u[32] <= 1
 interdiction[33]: x[33] + u[33] <= 1
 interdiction[34]: x[34] + u[34] <= 1
 interdiction[35]: x[35] + u[35] <= 1
 interdiction[36]: x[36] + u[36] <= 1
 interdiction[37]: x[37] + u[37] <= 1
 interdiction[38]: x[38] + u[38] <= 1
 interdiction[39]: x[39] + u[39] <= 1
 mccormick1[0]: - u[0] + z[0] <= 0
 mccormick1[1]: - u[1] + z[1] <= 0
 mccormick1[2]: - u[2] + z[2] <= 0
 mccormick1[3]: - u[3] + z[3] <= 0
 mccormick1[4]: - u[4] + z[4] <= 0
 mccormick1[5]: - u[5] + z[5] <= 0
 mccormick1[6]: - u[6] + z[6] <= 0
 mccormick1[7]: - u[7] + z[7] <= 0
 mccormick1[8]: - u[8] + z[8] <= 0
 mccormick1[9]: - u[9] + z[9] <= 0
 mccormick1[10]: - u[10] + z[10] <= 0
 mccormick1[11]: - u[11] + z[11] <= 0
 mccormick1[12]: - u[12] + z[12] <= 0
 mccormick1[13]: - u[13] + z[13] <= 0
 mccormick1[14]: - u[14] + z[14] <= 0
 mccormick1[15]: - u[15] + z[15] <= 0
 mccormick1[16]: - u[16] + z[16] <= 0
 mccormick1[17]: - u[17] + z[17] <= 0
 mccormick1[18]: - u[18] + z[18] <= 0
 mccormick1[19]: - u[19] + z[19] <= 0
 mccormick1[20]: - u[20] + z[20] <= 0
 mccormick1[21]: - u[21] + z[21] <= 0
 mccormick1[22]: - u[22] + z[22] <= 0
 mccormick1[23]: - u[23] + z[23] <= 0
 mccormick1[24]: - u[24] + z[24] <= 0
 mccormick1[25]: - u[25] + z[25] <= 0
 mccormick1[26]: - u[26] + z[26] <= 0
 mccormick1[27]: - u[27] + z[27] <= 0
 mccormick1[28]: - u[28] + z[28] <= 0
 mccormick1[29]: - u[29] + z[29] <= 0
 mccormick1[30]: - u[30] + z[30] <= 0
 mccormick1[31]: - u[31] + z[31] <= 0
 mccormick1[32]: - u[32] + z[32] <= 0
 mccormick1[33]: - u[33] + z[33] <= 0
 mccormick1[34]: - u[34] + z[34] <= 0
 mccormick1[35]: - u[35] + z[35] <= 0
 mccormick1[36]: - u[36] + z[36] <= 0
 mccormick1[37]: - u[37] + z[37] <= 0
 mccormick1[38]: - u[38] + z[38] <= 0
 mccormick1[39]: - u[39] + z[39] <= 0
 mccormick2[0]: - y[0] + z[0] <= 0
 mccormick2[1]: - y[1] + z[1] <= 0
 mccormick2[2]: - y[2] + z[2] <= 0
 mccormick2[3]: - y[3] + z[3] <= 0
 mccormick2[4]: - y[4] + z[4] <= 0
 mccormick2[5]: - y[5] + z[5] <= 0
 mccormick2[6]: - y[6] + z[6] <= 0
 mccormick2[7]: - y[7] + z[7] <= 0
 mccormick2[8]: - y[8] + z[8] <= 0
 mccormick2[9]: - y[9] + z[9] <= 0
 mccormick2[10]: - y[10] + z[10] <= 0
 mccormick2[11]: - y[11] + z[11] <= 0
 mccormick2[12]: - y[12] + z[12] <= 0
 mccormick2[13]: - y[13] + z[13] <= 0
 mccormick2[14]: - y[14] + z[14] <= 0
 mccormick2[15]: - y[15] + z[15] <= 0
 mccormick2[16]: - y[16] + z[16] <= 0
 mccormick2[17]: - y[17] + z[17] <= 0
 mccormick2[18]: - y[18] + z[18] <= 0
 mccormick2[19]: - y[19] + z[19] <= 0
 mccormick2[20]: - y[20] + z[20] <= 0
 mccormick2[21]: - y[21] + z[21] <= 0
 mccormick2[22]: - y[22] + z[22] <= 0
 mccormick2[23]: - y[23] + z[23] <= 0
 mccormick2[24]: - y[24] + z[24] <= 0
 mccormick2[25]: - y[25] + z[25] <= 0
 mccormick2[26]: - y[26] + z[26] <= 0
 mccormick2[27]: - y[27] + z[27] <= 0
 mccormick2[28]: - y[28] + z[28] <= 0
 mccormick2[29]: - y[29] + z[29] <= 0
 mccormick2[30]: - y[30] + z[30] <= 0
 mccormick2[31]: - y[31] + z[31] <= 0
 mccormick2[32]: - y[32] + z[32] <= 0
 mccormick2[33]: - y[33] + z[33] <= 0
 mccormick2[34]: - y[34] + z[34] <= 0
 mccormick2[35]: - y[35] + z[35] <= 0
 mccormick2[36]: - y[36] + z[36] <= 0
 mccormick2[37]: - y[37] + z[37] <= 0
 mccormick2[38]: - y[38] + z[38] <= 0
 mccormick2[39]: - y[39] + z[39] <= 0
 mccormick3[0]: y[0] + u[0] - z[0] <= 1
 mccormick3[1]: y[1] + u[1] - z[1] <= 1
 mccormick3[2]: y[2] + u[2] - z[2] <= 1
 mccormick3[3]: y[3] + u[3] - z[3] <= 1
 mccormick3[4]: y[4] + u[4] - z[4] <= 1
 mccormick3[5]: y[5] + u[5] - z[5] <= 1
 mccormick3[6]: y[6] + u[6] - z[6] <= 1
 mccormick3[7]: y[7] + u[7] - z[7] <= 1
 mccormick3[8]: y[8] + u[8] - z[8] <= 1
 mccormick3[9]: y[9] + u[9] - z[9] <= 1
 mccormick3[10]: y[10] + u[10] - z[10] <= 1
 mccormick3[11]: y[11] + u[11] - z[11] <= 1
 mccormick3[12]: y[12] + u[12] - z[12] <= 1
 mccormick3[13]: y[13] + u[13] - z[13] <= 1
 mccormick3[14]: y[14] + u[14] - z[14] <= 1
 mccormick3[15]: y[15] + u[15] - z[15] <= 1
 mccormick3[16]: y[16] + u[16] - z[16] <= 1
 mccormick3[17]: y[17] + u[17] - z[17] <= 1
 mccormick3[18]: y[18] + u[18] - z[18] <= 1
 mccormick3[19]: y[19] + u[19] - z[19] <= 1
 mccormick3[20]: y[20] + u[20] - z[20] <= 1
 mccormick3[21]: y[21] + u[21] - z[21] <= 1
 mccormick3[22]: y[22] + u[22] - z[22] <= 1
 mccormick3[23]: y[23] + u[23] - z[23] <= 1
 mccormick3[24]: y[24] + u[24] - z[24] <= 1
 mccormick3[25]: y[25] + u[25] - z[25] <= 1
 mccormick3[26]: y[26] + u[26] - z[26] <= 1
 mccormick3[27]: y[27] + u[27] - z[27] <= 1
 mccormick3[28]: y[28] + u[28] - z[28] <= 1
 mccormick3[29]: y[29] + u[29] - z[29] <= 1
 mccormick3[30]: y[30] + u[30] - z[30] <= 1
 mccormick3[31]: y[31] + u[31] - z[31] <= 1
 mccormick3[32]: y[32] + u[32] - z[32] <= 1
 mccormick3[33]: y[33] + u[33] - z[33] <= 1
 mccormick3[34]: y[34] + u[34] - z[34] <= 1
 mccormick3[35]: y[35] + u[35] - z[35] <= 1
 mccormick3[36]: y[36] + u[36] - z[36] <= 1
 mccormick3[37]: y[37] + u[37] - z[37] <= 1
 mccormick3[38]: y[38] + u[38] - z[38] <= 1
 mccormick3[39]: y[39] + u[39] - z[39] <= 1
Bounds
Binaries
 x[0] x[1] x[2] x[3] x[4] x[5] x[6] x[7] x[8] x[9] x[10] x[11] x[12] x[13]
 x[14] x[15] x[16] x[17] x[18] x[19] x[20] x[21] x[22] x[23] x[24] x[25]
 x[26] x[27] x[28] x[29] x[30] x[31] x[32] x[33] x[34] x[35] x[36] x[37]
 x[38] x[39] y[0] y[1] y[2] y[3] y[4] y[5] y[6] y[7] y[8] y[9] y[10] y[11]
 y[12] y[13] y[14] y[15] y[16] y[17] y[18] y[19] y[20] y[21] y[22] y[23]
 y[24] y[25] y[26] y[27] y[28] y[29] y[30] y[31] y[32] y[33] y[34] y[35]
 y[36] y[37] y[38] y[39] u[0] u[1] u[2] u[3] u[4] u[5] u[6] u[7] u[8] u[9]
 u[10] u[11] u[12] u[13] u[14] u[15] u[16] u[17] u[18] u[19] u[20] u[21]
 u[22] u[23] u[24] u[25] u[26] u[27] u[28] u[29] u[30] u[31] u[32] u[33]
 u[34] u[35] u[36] u[37] u[38] u[39] z[0] z[1] z[2] z[3] z[4] z[5] z[6]
 z[7] z[8] z[9] z[10] z[11] z[12] z[13] z[14] z[15] z[16] z[17] z[18] z[19]
 z[20] z[21] z[22] z[23] z[24] z[25] z[26] z[27] z[28] z[29] z[30] z[31]
 z[32] z[33] z[34] z[35] z[36] z[37] z[38] z[39]
End
